[2026-03-01T23:52:22] Logging to: /run/media/saveas/Secondary-Storage/Masters/CS234/CS234_Reinforcement_Learning/Final Project/CS234_Final_Project/results/trajectory_optimization/nlp/TRACK4_315m_Obstacles/N120/run_trajopt_demo_output.log
======================================================================
IPOPT TRAJECTORY OPTIMIZATION DEMO (SINGLE STAGE)
======================================================================

1. Loading track: /run/media/saveas/Secondary-Storage/Masters/CS234/CS234_Reinforcement_Learning/Final Project/CS234_Final_Project/maps/TRACK4_315m_Obstacles.mat
   Track length: 315.0 m

2. Creating vehicle model...
   Vehicle: SingleTrackModel(VW_Golf_GTI, weight_transfer=enabled)

3. Loaded obstacles from map: 4

4. Setup:
   N = 120
   ds = 2.62 m
   Obstacle subsamples/segment = 11
   Obstacle enforce midpoints = True
   Obstacle use slack = False
   Track buffer = 0.00 m
   lambda_u = 0.005
   vehicle_radius_m = 0.00
   eps_s = 0.100, eps_kappa = 0.050
   Solver path = Python/CasADi (IPOPT)

======================================================================
SINGLE STAGE: COMBINED OBJECTIVE (ACCEPTANCE-GATED)
======================================================================
Acceptance gates: success=True, max_slack<=0.000e+00, min_clearance>=-0.0050 m
Acceptance policy: practical epsilon mode (allows tiny negative dense clearance).
Initializer: obstacle_aware_init=True, sigma=8.00 m, margin=0.50 m

Attempt 1/4: baseline
  N=120, ds=2.625 m, subsamples=11, obstacle_clearance_m=0.300
Initializer: obstacle-aware e(s) enabled (sigma=8.00m, margin=0.30m)
Exception of type: DYNAMIC_LIBRARY_FAILURE in file "Common/IpLibraryLoader.cpp" at line 72:
 Exception message: libhsl.so: cannot open shared object file: No such file or directory

EXIT: Library loading failure.
      solver  :   t_proc      (avg)   t_wall      (avg)    n_eval
       total  | 329.00us (329.00us) 327.15us (327.15us)         1
Solver failed with ipopt.linear_solver=ma57: Error in Opti::solve [OptiNode] at .../casadi/core/optistack.cpp:217:
.../casadi/core/optistack_internal.cpp:1338: Assertion "return_success(accept_limit)" failed:
Solver failed. You may use opti.debug.value to investigate the latest values of variables. return_status is 'Invalid_Option'
Retrying with IPOPT default linear solver.

******************************************************************************
This program contains Ipopt, a library for large-scale nonlinear optimization.
 Ipopt is released as open source code under the Eclipse Public License (EPL).
         For more information visit https://github.com/coin-or/Ipopt
******************************************************************************

This is Ipopt version 3.14.11, running with linear solver MUMPS 5.4.1.

Number of nonzeros in equality constraint Jacobian...:    13219
Number of nonzeros in inequality constraint Jacobian.:     3557
Number of nonzeros in Lagrangian Hessian.............:     5175

Total number of variables............................:     1210
                     variables with only lower bounds:        0
                variables with lower and upper bounds:        0
                     variables with only upper bounds:        0
Total number of equality constraints.................:      970
Total number of inequality constraints...............:     2188
        inequality constraints with only lower bounds:     1825
   inequality constraints with lower and upper bounds:        0
        inequality constraints with only upper bounds:      363

iter    objective    inf_pr   inf_du lg(mu)  ||d||  lg(rg) alpha_du alpha_pr  ls
   0  3.1500000e+01 4.70e-01 1.23e+00  -1.0 0.00e+00    -  0.00e+00 0.00e+00   0
   1  3.1368314e+01 5.44e+00 1.43e+03  -1.0 8.47e+00   2.0 6.13e-01 1.00e+00H  1
   2  3.1370179e+01 5.01e+00 1.24e+03  -1.0 5.81e-01   3.3 1.43e-01 1.15e-01h  4
   3  3.1375576e+01 4.47e+00 1.36e+03  -1.0 1.98e+00   2.9 4.07e-01 1.12e-01h  4
   4  3.1386930e+01 4.63e+00 4.97e+03  -1.0 1.28e+00   3.3 4.70e-01 2.25e-01h  3
   5  3.1453013e+01 5.73e+00 3.26e+05  -1.0 1.26e+00   2.8 9.91e-01 1.00e+00h  1
   6  3.1449472e+01 5.40e+00 2.44e+05  -1.0 6.23e+00   2.3 5.32e-01 6.27e-02h  4
   7  3.1513952e+01 4.23e+00 5.87e+04  -1.0 1.78e+00   1.8 1.00e+00 9.66e-01h  1
   8  3.1686294e+01 2.56e+00 2.21e+04  -1.0 2.04e+00   1.4 2.54e-02 1.00e+00h  1
   9  3.1700078e+01 7.79e-01 4.34e+03  -1.0 2.20e-01   2.7 1.00e+00 1.00e+00h  1
iter    objective    inf_pr   inf_du lg(mu)  ||d||  lg(rg) alpha_du alpha_pr  ls
  10  3.1699595e+01 2.67e-01 1.43e+03  -1.0 6.97e-02   3.1 1.00e+00 1.00e+00h  1
  11  3.1699174e+01 2.61e-01 1.32e+03  -1.0 4.92e-02   3.6 8.68e-01 1.00e+00h  1
  12  3.1700038e+01 2.74e-02 6.04e+02  -1.0 1.07e-01   3.1 1.00e+00 1.00e+00h  1
  13  3.1700073e+01 7.73e-04 6.25e+01  -1.0 3.33e-03   3.5 1.00e+00 1.00e+00h  1
  14  3.1700050e+01 1.17e-06 5.74e-01  -1.0 5.46e-04   3.0 1.00e+00 1.00e+00h  1
  15  3.1700007e+01 3.46e-07 1.03e-01  -1.7 2.93e-04   2.5 1.00e+00 1.00e+00h  1
  16  3.1699896e+01 1.03e-07 1.84e-02  -2.5 1.57e-04   2.1 1.00e+00 1.00e+00h  1
  17  3.1699572e+01 3.74e-07 1.26e-02  -3.8 3.22e-04   1.6 1.00e+00 1.00e+00h  1
  18  3.1698598e+01 3.33e-06 1.26e-02  -3.8 9.67e-04   1.1 1.00e+00 1.00e+00h  1
  19  3.1695678e+01 2.90e-05 1.26e-02  -3.8 2.90e-03   0.6 1.00e+00 1.00e+00h  1
iter    objective    inf_pr   inf_du lg(mu)  ||d||  lg(rg) alpha_du alpha_pr  ls
  20  3.1686929e+01 2.36e-04 1.25e-02  -3.8 8.69e-03   0.2 1.00e+00 1.00e+00h  1
  21  3.1660777e+01 1.52e-03 1.25e-02  -3.8 2.60e-02  -0.3 1.00e+00 1.00e+00h  1
  22  3.1583001e+01 1.04e-02 1.24e-02  -3.8 7.73e-02  -0.8 1.00e+00 1.00e+00h  1
  23  3.1353819e+01 1.19e-01 2.12e-02  -3.8 2.28e-01  -1.3 1.00e+00 1.00e+00h  1
  24  3.0704935e+01 1.36e+00 3.31e-02  -3.8 6.48e-01  -1.7 1.00e+00 1.00e+00h  1
  25  3.0489267e+01 2.04e-01 1.46e-02  -3.8 3.07e-01  -1.3 1.00e+00 1.00e+00h  1
  26  3.0181122e+01 1.55e-01 1.15e-02  -3.8 6.52e-01  -1.8 1.00e+00 4.73e-01h  1
  27  2.9973505e+01 5.76e-02 1.00e-02  -3.8 2.37e-01  -1.4 1.00e+00 8.77e-01h  1
  28  2.9281655e+01 3.34e+00 5.56e-02  -3.8 7.81e-01  -1.9 1.00e+00 1.00e+00f  1
  29  2.9051544e+01 3.73e+00 2.32e-01  -3.8 4.64e-01  -1.4 1.00e+00 1.00e+00h  1
iter    objective    inf_pr   inf_du lg(mu)  ||d||  lg(rg) alpha_du alpha_pr  ls
  30  2.8377633e+01 3.54e+00 5.62e-02  -3.8 1.14e+00  -1.9 1.00e+00 1.00e+00h  1
  31  2.8379894e+01 1.34e+00 3.39e+01  -3.8 7.72e-01   0.3 4.71e-01 1.27e-01h  3
  32  2.8385384e+01 1.54e-01 3.02e+00  -3.8 5.75e-01  -0.1 1.00e+00 1.00e+00h  1
  33  2.8355901e+01 2.46e-02 1.87e-01  -3.8 4.67e-02  -0.6 1.00e+00 1.00e+00h  1
  34  2.8259745e+01 1.12e-02 5.32e-02  -3.8 9.66e-02  -1.1 1.00e+00 1.00e+00h  1
  35  2.7981160e+01 8.39e-02 1.17e-02  -3.8 2.80e-01  -1.6 1.00e+00 1.00e+00h  1
  36  2.7236737e+01 7.87e-01 3.65e-02  -3.8 8.58e-01  -2.1 1.00e+00 1.00e+00h  1
  37  2.5956442e+01 4.98e+00 5.07e-02  -3.8 3.22e+00  -2.5 1.00e+00 7.43e-01h  1
  38  2.5914238e+01 4.45e+00 4.46e-02  -3.8 2.46e+00  -2.1 3.22e-01 1.10e-01h  1
  39  2.5907207e+01 3.64e+00 8.85e-02  -3.8 2.20e+00  -1.7 1.00e+00 1.83e-01h  1
iter    objective    inf_pr   inf_du lg(mu)  ||d||  lg(rg) alpha_du alpha_pr  ls
  40  2.5930180e+01 2.47e+00 1.12e-01  -3.8 1.69e+00  -1.3 8.10e-01 3.24e-01h  1
  41  2.5939344e+01 2.17e+00 1.88e-01  -3.8 1.05e+00  -0.8 1.00e+00 1.20e-01h  1
  42  2.5983899e+01 1.10e+00 3.78e-01  -3.8 9.02e-01  -0.4 7.46e-01 5.12e-01h  1
  43  2.6012056e+01 7.28e-01 5.17e-01  -3.8 4.27e-01   0.0 1.00e+00 6.01e-01h  1
  44  2.6032104e+01 5.13e-01 1.29e+00  -3.8 1.68e-01   0.4 1.00e+00 1.00e+00h  1
  45  2.6032411e+01 5.71e-02 6.20e-01  -3.8 2.27e-01  -0.0 1.00e+00 1.00e+00h  1
  46  2.6019607e+01 3.72e-03 1.73e-02  -3.8 3.16e-02  -0.5 1.00e+00 1.00e+00h  1
  47  2.5981558e+01 6.86e-03 8.02e-03  -3.8 7.70e-02  -1.0 1.00e+00 1.00e+00h  1
  48  2.5873736e+01 2.88e-02 8.91e-03  -3.8 2.19e-01  -1.5 1.00e+00 1.00e+00h  1
  49  2.5701305e+01 1.78e-01 8.22e-03  -3.8 7.51e-01  -1.9 1.00e+00 5.78e-01h  1
iter    objective    inf_pr   inf_du lg(mu)  ||d||  lg(rg) alpha_du alpha_pr  ls
  50  2.5599703e+01 9.69e-02 8.03e-03  -3.8 2.60e-01  -1.5 1.00e+00 9.66e-01h  1
  51  2.5301157e+01 2.18e+00 1.97e-02  -3.8 9.50e-01  -2.0 1.00e+00 1.00e+00h  1
  52  2.4962492e+01 1.71e+00 1.21e-02  -3.8 2.17e+00  -2.5 1.00e+00 4.69e-01h  1
  53  2.4614594e+01 2.12e+00 1.50e-02  -3.8 4.74e+00  -2.9 5.31e-01 2.33e-01h  1
  54  2.4588446e+01 1.65e+00 2.80e-02  -3.8 8.53e-01  -1.6 5.59e-01 5.74e-01h  1
  55  2.4583414e+01 8.01e-01 6.19e-02  -3.8 6.73e-01  -1.2 1.00e+00 5.40e-01h  1
  56  2.4509804e+01 2.95e-01 2.19e-02  -3.8 3.99e-01  -1.7 1.00e+00 1.00e+00h  1
  57  2.4381516e+01 2.61e-01 2.10e-02  -3.8 7.82e-01  -2.1 9.41e-01 5.42e-01h  1
  58  2.4371992e+01 6.34e-02 2.52e-02  -3.8 4.08e-02  -0.8 1.00e+00 1.00e+00h  1
  59  2.4366957e+01 1.55e-02 8.72e-02  -3.8 3.74e-02  -0.4 4.00e-01 1.00e+00h  1
iter    objective    inf_pr   inf_du lg(mu)  ||d||  lg(rg) alpha_du alpha_pr  ls
  60  2.4353481e+01 4.14e-03 1.01e-02  -3.8 3.34e-02  -0.9 1.00e+00 1.00e+00h  1
  61  2.4313783e+01 4.58e-02 4.77e-03  -3.8 1.05e-01  -1.3 1.00e+00 1.00e+00h  1
  62  2.4199563e+01 5.21e-01 1.62e-02  -3.8 3.38e-01  -1.8 1.00e+00 1.00e+00h  1
  63  2.4125035e+01 5.71e-01 8.01e-01  -3.8 1.39e+00  -2.3 2.59e-01 2.27e-01h  1
  64  2.4095740e+01 5.01e-01 5.53e-01  -3.8 3.93e-01  -1.9 1.00e+00 3.35e-01h  1
  65  2.4025646e+01 3.98e-01 3.91e-01  -3.8 8.15e-01  -2.3 1.00e+00 2.82e-01h  1
  66  2.3942243e+01 4.69e-01 3.29e-01  -3.8 3.70e+00  -2.8 1.00e+00 1.41e-01h  1
  67  2.3750653e+01 1.09e+00 2.18e-02  -3.8 1.33e+00  -2.4 1.00e+00 8.20e-01h  1
  68  2.3726692e+01 7.51e+00 2.36e-02  -3.8 3.34e+00  -2.0 6.57e-02 1.52e-01h  1
  69  2.3672913e+01 5.80e+00 1.19e-01  -3.8 4.39e+00  -2.4 4.20e-01 2.27e-01h  1
iter    objective    inf_pr   inf_du lg(mu)  ||d||  lg(rg) alpha_du alpha_pr  ls
  70  2.3679562e+01 2.26e+00 3.02e+00  -3.8 1.10e+01  -1.1 5.56e-02 3.75e-02h  1
  71  2.3682642e+01 1.75e+00 1.63e+00  -3.8 5.09e-01   0.2 3.19e-04 3.23e-01h  1
  72  2.3683266e+01 1.61e+00 1.49e+00  -3.8 7.34e-01  -0.3 3.15e-01 8.43e-02h  1
  73  2.3686528e+01 6.11e-01 5.61e-01  -3.8 7.25e-01  -0.7 1.00e+00 6.29e-01h  1
  74  2.3676476e+01 9.31e-02 1.74e-01  -3.8 2.73e-01  -1.2 1.00e+00 1.00e+00h  1
  75  2.3635471e+01 1.53e-02 2.36e-02  -3.8 1.67e-01  -1.7 1.00e+00 1.00e+00h  1
  76  2.3589249e+01 4.09e-02 1.48e-02  -3.8 6.44e-01  -2.2 1.00e+00 4.18e-01h  1
  77  2.3488529e+01 2.19e+00 1.07e-02  -3.8 6.61e+00  -2.7 3.86e-01 2.97e-01h  1
  78  2.3476631e+01 8.67e-01 9.40e-02  -3.8 6.43e-01  -1.3 3.07e-01 1.00e+00h  1
  79  2.3474838e+01 4.45e-01 1.39e-01  -3.8 4.75e-01  -0.9 1.00e+00 4.96e-01h  1
iter    objective    inf_pr   inf_du lg(mu)  ||d||  lg(rg) alpha_du alpha_pr  ls
  80  2.3462121e+01 5.81e-02 3.94e-02  -3.8 2.82e-01  -1.4 1.00e+00 1.00e+00h  1
  81  2.3419357e+01 5.87e-02 6.58e-03  -3.8 2.16e-01  -1.9 1.00e+00 1.00e+00h  1
  82  2.3300806e+01 7.99e-01 7.08e-03  -3.8 6.10e-01  -2.3 1.00e+00 1.00e+00h  1
  83  2.3241800e+01 7.14e-01 5.81e-03  -3.8 1.13e+00  -2.8 6.29e-01 2.23e-01h  1
  84  2.3192144e+01 3.19e-01 4.96e-03  -3.8 4.24e-01  -2.4 1.00e+00 5.57e-01h  1
  85  2.3176198e+01 1.91e-01 2.25e-02  -3.8 3.15e-01  -2.0 1.00e+00 5.55e-01h  1
  86  2.3165770e+01 2.81e-02 8.07e-03  -3.8 7.91e-02  -1.5 1.00e+00 1.00e+00h  1
  87  2.3129122e+01 2.26e-02 1.65e-03  -3.8 1.67e-01  -2.0 1.00e+00 1.00e+00h  1
  88  2.3030069e+01 7.40e-01 3.96e-03  -3.8 3.76e-01  -2.5 1.00e+00 1.00e+00h  1
  89  2.2997069e+01 6.73e-01 8.65e-03  -3.8 1.80e-01  -2.1 1.00e+00 1.00e+00h  1
iter    objective    inf_pr   inf_du lg(mu)  ||d||  lg(rg) alpha_du alpha_pr  ls
  90  2.2903308e+01 8.04e-02 5.40e-03  -3.8 4.24e-01  -2.5 1.00e+00 1.00e+00h  1
  91  2.2661085e+01 3.04e-01 8.00e-03  -3.8 1.19e+00  -3.0 1.00e+00 1.00e+00h  1
  92  2.2502746e+01 1.57e+00 1.61e-02  -3.8 5.73e+00  -3.5 9.81e-01 2.57e-01h  1
  93  2.2483535e+01 9.02e-01 2.59e-01  -3.8 2.57e-01  -2.2 4.09e-01 1.00e+00h  1
  94  2.2401389e+01 3.33e-01 2.13e-02  -3.8 5.53e-01  -2.6 1.00e+00 1.00e+00h  1
  95  2.2244121e+01 8.06e-01 2.20e-02  -3.8 1.64e+00  -3.1 1.00e+00 6.76e-01h  1
  96  2.2164263e+01 1.57e+00 1.98e-01  -3.8 8.56e-01  -2.7 7.83e-01 1.00e+00h  1
  97  2.2126289e+01 7.71e-01 1.29e-01  -3.8 1.24e+00  -2.3 3.94e-01 1.00e+00h  1
  98  2.2103623e+01 6.22e-01 7.40e-02  -3.8 1.05e+00  -2.7 5.93e-01 2.34e-01h  1
  99  2.2078971e+01 5.38e-01 6.99e-02  -3.8 2.29e+00  -3.2 5.94e-01 1.37e-01h  1
iter    objective    inf_pr   inf_du lg(mu)  ||d||  lg(rg) alpha_du alpha_pr  ls
 100  2.2078559e+01 2.49e-01 3.02e-01  -3.8 3.49e-01  -1.9 1.00e+00 1.00e+00h  1
 101  2.2051789e+01 2.20e-01 9.94e-02  -3.8 3.05e-01  -2.4 5.32e-01 8.87e-01h  1
 102  2.2053081e+01 6.84e-01 2.41e-01  -3.8 2.67e-01  -1.0 7.24e-01 1.00e+00H  1
 103  2.2050288e+01 4.44e-01 2.37e-01  -3.8 3.23e-01  -1.5 1.00e+00 4.23e-01h  1
 104  2.2049961e+01 3.55e-01 3.21e-01  -3.8 2.61e-01  -0.2 9.68e-01 2.54e-01h  1
 105  2.2048487e+01 2.12e-01 4.24e-02  -3.8 1.94e-01  -0.7 1.00e+00 1.00e+00h  1
 106  2.2046941e+01 5.04e-02 1.14e-02  -3.8 2.05e-02  -1.1 1.00e+00 1.00e+00h  1
 107  2.2042114e+01 7.26e-03 1.13e-02  -3.8 4.77e-02  -1.6 1.00e+00 1.00e+00h  1
 108  2.2027059e+01 2.07e-02 1.15e-03  -3.8 1.42e-01  -2.1 1.00e+00 1.00e+00h  1
 109  2.1985625e+01 6.14e-02 2.70e-03  -3.8 4.20e-01  -2.6 1.00e+00 1.00e+00h  1
iter    objective    inf_pr   inf_du lg(mu)  ||d||  lg(rg) alpha_du alpha_pr  ls
 110  2.1900791e+01 6.49e-02 5.33e-03  -3.8 1.19e+00  -3.0 1.00e+00 7.60e-01h  1
 111  2.1814565e+01 5.30e-02 1.47e-02  -3.8 2.96e+00  -3.5 9.42e-01 3.04e-01h  1
 112  2.1710793e+01 9.43e-02 6.36e-03  -3.8 1.19e+00  -3.1 1.00e+00 1.00e+00h  1
 113  2.1439328e+01 9.43e-01 6.09e-03  -3.8 3.16e+00  -3.6 9.63e-01 1.00e+00h  1
 114  2.1354663e+01 9.18e-01 9.75e-03  -3.8 1.17e+00  -3.1 1.00e+00 1.00e+00h  1
 115  2.1109613e+01 1.35e+00 6.35e-02  -3.8 3.45e+00  -3.6 1.00e+00 1.00e+00h  1
 116  2.0965598e+01 1.14e+00 3.92e-02  -3.8 9.08e+00  -4.1 3.16e-01 2.37e-01h  1
 117  2.0974883e+01 5.04e-01 1.76e-02  -3.8 7.41e-01  -1.9 9.86e-01 1.00e+00h  1
 118  2.0963276e+01 1.80e+00 1.73e-01  -3.8 4.12e-01  -2.3 1.00e+00 1.00e+00h  1
 119  2.0930829e+01 5.80e-01 4.33e-02  -3.8 4.67e-01  -2.8 1.00e+00 1.00e+00h  1
iter    objective    inf_pr   inf_du lg(mu)  ||d||  lg(rg) alpha_du alpha_pr  ls
 120  2.0865537e+01 3.69e-01 1.53e-02  -3.8 1.53e+00  -3.3 1.00e+00 7.37e-01h  1
 121  2.0626299e+01 8.45e-01 2.83e-02  -3.8 4.18e+00  -3.8 7.34e-01 1.00e+00h  1
 122  2.0625206e+01 4.61e+00 3.35e-01  -3.8 5.50e-01  -1.5 2.21e-01 5.35e-01h  1
 123  2.0623042e+01 3.48e+00 2.13e-01  -3.8 7.97e-01  -2.0 6.28e-01 2.08e-01h  1
 124  2.0610649e+01 1.38e+00 1.42e-01  -3.8 6.39e-01  -2.5 8.09e-01 1.00e+00h  1
 125  2.0593576e+01 9.47e-01 6.60e-02  -3.8 6.43e-01  -3.0 1.00e+00 5.05e-01h  1
 126  2.0518418e+01 4.74e-01 3.28e-02  -3.8 1.85e+00  -3.5 1.00e+00 8.28e-01h  1
 127  2.0419161e+01 9.08e-01 5.12e-02  -3.8 4.97e+00  -3.9 9.65e-01 4.38e-01h  1
 128  2.0337816e+01 7.84e-01 4.53e-02  -3.8 1.45e+01  -4.4 6.31e-01 1.60e-01h  1
 129  2.0190227e+01 6.30e-01 6.51e-02  -3.8 2.24e+01  -4.9 3.28e-01 2.31e-01h  1
iter    objective    inf_pr   inf_du lg(mu)  ||d||  lg(rg) alpha_du alpha_pr  ls
 130  2.0189774e+01 8.40e-01 7.60e-02  -3.8 5.82e-01  -2.7 8.14e-01 3.10e-01h  2
 131  2.0177795e+01 1.55e+00 1.64e-01  -3.8 7.60e-01  -3.1 1.00e+00 1.00e+00h  1
 132  2.0131445e+01 7.45e-01 8.27e-03  -3.8 2.57e+00  -3.6 7.49e-01 6.44e-01h  1
 133  2.0114507e+01 2.74e-01 8.80e-03  -3.8 1.49e+00  -3.2 1.00e+00 6.12e-01h  1
 134  2.0050903e+01 2.57e+00 1.12e-01  -3.8 2.22e+00  -3.7 1.23e-01 1.00e+00h  1
 135  1.9955985e+01 4.67e+00 7.76e-02  -3.8 4.26e+00  -4.1 3.88e-01 1.00e+00h  1
 136  1.9797907e+01 9.14e+00 1.19e-01  -3.8 1.11e+01  -4.6 1.88e-01 8.31e-01h  1
 137  1.9797502e+01 8.66e+00 1.05e-01  -3.8 5.57e+00  -2.4 4.40e-02 5.13e-02h  1
 138  1.9797842e+01 8.35e+00 1.00e-01  -3.8 1.23e+01  -2.0 2.97e-01 3.35e-02h  1
 139  1.9798262e+01 7.93e+00 9.92e-02  -3.8 3.03e+00  -0.6 5.87e-02 1.54e-02h  1
iter    objective    inf_pr   inf_du lg(mu)  ||d||  lg(rg) alpha_du alpha_pr  ls
 140  1.9800257e+01 3.65e+00 1.01e-01  -3.8 1.36e+00  -1.1 8.59e-02 2.95e-01h  1
 141  1.9800379e+01 3.47e+00 2.87e-01  -3.8 7.42e-01   0.2 2.99e-02 3.83e-02h  1
 142  1.9800439e+01 3.37e+00 1.27e+00  -3.8 5.39e-01   0.7 1.24e-01 2.33e-02h  1
 143  1.9800748e+01 2.02e+00 2.43e+00  -3.8 6.56e-01   0.2 2.51e-01 1.30e-01h  1
 144  1.9801387e+01 1.81e+00 2.17e+00  -3.8 4.40e-01  -0.3 2.11e-01 1.05e-01h  1
 145  1.9806734e+01 8.85e-01 1.39e+00  -3.8 3.98e-01  -0.8 1.17e-01 5.95e-01h  1
 146  1.9808506e+01 5.98e-01 4.45e-01  -3.8 3.21e-01  -1.3 1.00e+00 3.71e-01h  1
 147  1.9809828e+01 1.60e+00 2.16e+00  -3.8 3.09e-01  -1.7 7.96e-01 3.90e-01h  1
 148  1.9817398e+01 1.77e+00 9.58e-01  -3.8 3.02e+00  -2.2 1.56e-01 4.42e-01h  1
 149  1.9820322e+01 1.68e+00 1.82e-01  -3.8 5.44e-01  -0.9 1.90e-01 2.75e-01h  1
iter    objective    inf_pr   inf_du lg(mu)  ||d||  lg(rg) alpha_du alpha_pr  ls
 150  1.9818149e+01 1.87e+00 3.14e+01  -3.8 1.13e+00   0.4 5.70e-03 2.51e-01h  1
 151  1.9818552e+01 1.08e+00 1.72e+01  -3.8 5.67e-01  -0.0 2.40e-02 4.55e-01h  1
 152  1.9818540e+01 1.01e+00 1.61e+01  -3.8 3.85e-01  -0.5 6.87e-01 6.27e-02h  1
 153  1.9817695e+01 6.45e-01 1.04e+01  -3.8 4.75e-01  -1.0 2.34e-01 3.81e-01h  1
 154  1.9817926e+01 4.24e-01 6.83e+00  -3.8 2.04e-01  -0.6 1.00e+00 3.48e-01h  1
 155  1.9817696e+01 4.25e-03 3.60e-01  -3.8 1.76e-01  -1.0 1.00e+00 1.00e+00h  1
 156  1.9816038e+01 1.36e-02 8.14e-03  -3.8 5.51e-02  -1.5 1.00e+00 1.00e+00h  1
 157  1.9813776e+01 3.19e-02 2.31e-03  -3.8 1.33e-01  -2.0 1.00e+00 6.99e-01h  1
 158  1.9810514e+01 9.54e-02 4.84e-03  -3.8 2.29e-01  -2.5 1.00e+00 6.65e-01f  1
 159  1.9809405e+01 3.26e-02 1.01e-03  -3.8 1.11e-01  -2.0 1.00e+00 1.00e+00h  1
iter    objective    inf_pr   inf_du lg(mu)  ||d||  lg(rg) alpha_du alpha_pr  ls
 160  1.9805952e+01 1.69e-01 1.41e-03  -3.8 2.71e-01  -2.5 1.00e+00 1.00e+00h  1
 161  1.9799566e+01 4.08e-01 7.81e-03  -3.8 4.01e-01  -3.0 1.00e+00 1.00e+00h  1
 162  1.9793040e+01 2.25e-01 9.22e-03  -3.8 6.99e-01  -3.5 1.00e+00 5.33e-01h  1
 163  1.9773019e+01 8.97e-01 2.10e-02  -3.8 1.35e+00  -3.9 1.00e+00 7.40e-01h  1
 164  1.9743584e+01 1.02e+00 2.12e-02  -3.8 4.07e+00  -4.4 8.98e-01 8.19e-01h  1
 165  1.9701747e+01 1.20e+00 1.28e-02  -3.8 1.24e+01  -4.9 1.00e+00 9.33e-01h  1
 166  1.9603154e+01 1.66e+00 5.50e-03  -3.8 3.81e+01  -5.4 1.00e+00 1.00e+00h  1
 167  1.9559846e+01 1.41e+00 1.25e-02  -3.8 1.16e+02  -5.9 2.45e-01 1.48e-01h  1
 168  1.9498007e+01 1.35e+00 1.48e-02  -3.8 5.74e+02  -6.3 6.65e-02 4.46e-02h  1
 169  1.9502377e+01 1.32e+00 5.17e-02  -3.8 2.52e+01    -  2.00e-01 4.93e-01h  1
iter    objective    inf_pr   inf_du lg(mu)  ||d||  lg(rg) alpha_du alpha_pr  ls
 170  1.9501363e+01 7.56e-01 4.60e-02  -3.8 3.08e-01  -2.3 9.49e-01 1.00e+00h  1
 171  1.9501144e+01 3.61e-01 1.66e-02  -3.8 4.03e-01  -2.8 1.00e+00 1.00e+00h  1
 172  1.9501210e+01 2.46e+00 3.39e-01  -3.8 3.97e-01  -3.3 1.00e+00 1.00e+00h  1
 173  1.9494462e+01 7.56e-01 1.94e-02  -3.8 7.97e-01  -2.8 1.00e+00 1.00e+00h  1
 174  1.9493792e+01 6.97e-01 6.98e-02  -3.8 1.09e+00  -3.3 1.00e+00 5.00e-01h  2
 175  1.9493405e+01 5.26e+00 7.48e-02  -3.8 1.13e+00  -3.8 8.41e-01 1.00e+00h  1
 176  1.9491068e+01 2.82e+00 1.57e+00  -3.8 1.32e+00  -0.6 8.37e-02 3.65e-01h  1
 177  1.9486028e+01 6.99e+00 2.42e+00  -3.8 1.87e+00  -0.2 2.25e-01 6.64e-01h  1
 178  1.9486793e+01 6.62e+00 2.33e+00  -3.8 2.05e+00   0.2 9.87e-05 5.17e-02h  1
 179  1.9483805e+01 5.32e+00 1.98e+00  -3.8 2.43e+00  -0.3 5.86e-02 1.83e-01h  1
iter    objective    inf_pr   inf_du lg(mu)  ||d||  lg(rg) alpha_du alpha_pr  ls
 180  1.9483309e+01 5.11e+00 1.91e+00  -3.8 1.29e+00   0.2 1.57e-01 3.89e-02h  1
 181  1.9482210e+01 4.82e+00 5.09e+00  -3.8 1.25e+00   0.6 1.00e+00 5.54e-02h  1
 182  1.9478159e+01 1.35e+00 1.25e+01  -3.8 1.05e+00   1.0 1.44e-01 2.99e-01h  1
 183  1.9483018e+01 7.04e-01 6.77e+00  -3.8 6.77e-01   0.5 2.81e-04 5.03e-01h  1
 184  1.9482249e+01 8.80e-01 2.74e+01  -3.8 7.86e+00   1.0 8.85e-02 1.16e-02h  2
 185  1.9489257e+01 6.62e-01 2.00e+01  -3.8 3.57e-01   0.5 3.01e-01 2.73e-01h  2
 186  1.9492010e+01 5.81e-01 1.75e+01  -3.8 2.43e-01   0.0 6.97e-01 1.25e-01h  2
 187  1.9492824e+01 5.51e-01 1.66e+01  -3.8 3.43e-01  -0.5 4.38e-01 5.28e-02h  3
 188  1.9511295e+01 1.42e-01 3.75e+00  -3.8 2.43e-01  -1.0 3.81e-01 8.93e-01h  1
 189  1.9511427e+01 1.40e-02 3.13e-01  -3.8 8.20e-02  -1.4 9.74e-01 1.00e+00h  1
iter    objective    inf_pr   inf_du lg(mu)  ||d||  lg(rg) alpha_du alpha_pr  ls
 190  1.9502438e+01 3.19e-02 6.29e-02  -3.8 1.73e-01  -1.9 7.07e-01 9.87e-01h  1
 191  1.9495660e+01 2.99e-01 2.50e-03  -3.8 2.85e-01  -2.4 1.00e+00 1.00e+00f  1
 192  1.9495843e+01 1.30e-01 4.94e-03  -3.8 2.44e-01  -2.9 1.00e+00 1.00e+00h  1
 193  1.9494721e+01 7.22e-02 3.04e-03  -3.8 3.91e-01  -3.3 1.00e+00 1.00e+00h  1
 194  1.9484733e+01 2.74e-01 2.74e-03  -3.8 8.34e+01    -  5.75e-02 3.16e-02h  1
 195  1.9465899e+01 4.84e+00 4.11e-02  -3.8 4.55e+01    -  3.43e-01 3.15e-01h  1
 196  1.9452000e+01 3.58e+00 3.05e-02  -3.8 2.30e+01    -  7.85e-01 2.55e-01h  1
 197  1.9427754e+01 1.50e+00 5.18e-02  -3.8 8.81e+00    -  5.13e-01 1.00e+00h  1
 198  1.9429940e+01 7.90e-01 1.48e-02  -3.8 3.62e+00    -  6.70e-01 4.80e-01h  1
 199  1.9435538e+01 8.48e-02 6.13e-03  -3.8 6.33e+00    -  1.00e+00 1.00e+00h  1
iter    objective    inf_pr   inf_du lg(mu)  ||d||  lg(rg) alpha_du alpha_pr  ls
 200  1.9434366e+01 1.42e+00 1.33e-01  -3.8 5.60e+00    -  1.00e+00 5.00e-01h  2
 201  1.9432908e+01 2.19e+00 3.57e-01  -3.8 1.81e-01  -1.1 1.00e+00 1.00e+00h  1
 202  1.9433396e+01 1.93e+00 2.68e-01  -3.8 8.52e-01  -1.6 6.90e-01 1.12e-01h  3
 203  1.9435335e+01 6.36e-01 2.64e-01  -3.8 2.34e-01  -0.3 1.00e+00 8.22e-01h  1
 204  1.9436179e+01 1.40e-01 6.82e-02  -3.8 1.29e-01  -0.7 1.00e+00 1.00e+00h  1
 205  1.9436712e+01 8.01e-02 3.17e-01  -3.8 3.18e-02   0.6 1.00e+00 4.31e-01h  1
 206  1.9437532e+01 4.11e-04 2.90e-02  -3.8 1.77e-02   0.1 1.00e+00 1.00e+00f  1
 207  1.9434766e+01 4.54e-01 2.59e-01  -3.8 4.25e+00    -  1.00e+00 4.33e-01h  2
 208  1.9434041e+01 1.96e-01 1.26e-01  -3.8 4.53e+00    -  1.00e+00 5.57e-01h  1
 209  1.9432966e+01 7.93e-02 4.14e-02  -3.8 2.01e+00    -  1.00e+00 1.00e+00h  1
iter    objective    inf_pr   inf_du lg(mu)  ||d||  lg(rg) alpha_du alpha_pr  ls
 210  1.9432136e+01 4.46e-02 8.97e-03  -3.8 1.27e+00    -  1.00e+00 1.00e+00h  1
 211  1.9432884e+01 1.30e-01 8.72e-02  -3.8 5.56e-02    -  1.00e+00 1.00e+00h  1
 212  1.9432551e+01 9.20e-02 1.55e-02  -3.8 1.00e-01    -  1.00e+00 1.00e+00h  1
 213  1.9432850e+01 9.06e-03 3.72e-03  -3.8 1.27e-01    -  1.00e+00 1.00e+00h  1
 214  1.9432893e+01 6.09e-04 6.76e-04  -3.8 1.72e-02    -  1.00e+00 1.00e+00h  1
 215  1.9426011e+01 8.54e-03 4.11e-03  -5.7 1.09e+00    -  9.31e-01 6.32e-01h  1
 216  1.9422710e+01 1.38e-02 2.28e-03  -5.7 5.73e-01    -  1.00e+00 8.63e-01h  1
 217  1.9422293e+01 4.60e-03 5.08e-04  -5.7 1.61e-01    -  1.00e+00 9.02e-01h  1
 218  1.9422256e+01 1.04e-03 2.57e-04  -5.7 5.83e-02    -  1.00e+00 1.00e+00h  1
 219  1.9422256e+01 9.95e-04 1.73e-04  -5.7 4.17e-03    -  1.00e+00 1.00e+00h  1
iter    objective    inf_pr   inf_du lg(mu)  ||d||  lg(rg) alpha_du alpha_pr  ls
 220  1.9422257e+01 1.96e-04 8.42e-05  -5.7 1.17e-03    -  1.00e+00 1.00e+00h  1
 221  1.9422257e+01 3.18e-05 4.53e-06  -5.7 5.08e-04    -  1.00e+00 1.00e+00h  1
 222  1.9422257e+01 1.43e-07 5.35e-08  -5.7 4.91e-05    -  1.00e+00 1.00e+00h  1
 223  1.9422146e+01 6.01e-05 4.83e-05  -7.0 3.33e-02    -  1.00e+00 1.00e+00h  1
 224  1.9422147e+01 3.74e-06 4.06e-06  -7.0 2.73e-03    -  1.00e+00 1.00e+00h  1
 225  1.9422147e+01 4.09e-08 4.42e-08  -7.0 3.36e-04    -  1.00e+00 1.00e+00h  1

Number of Iterations....: 225

                                   (scaled)                 (unscaled)
Objective...............:   1.9422146697280084e+01    1.9422146697280084e+01
Dual infeasibility......:   4.4179242649831202e-08    4.4179242649831202e-08
Constraint violation....:   4.0918299859526996e-08    4.0918299859526996e-08
Variable bound violation:   0.0000000000000000e+00    0.0000000000000000e+00
Complementarity.........:   9.2244179905919408e-08    9.2244179905919408e-08
Overall NLP error.......:   9.2244179905919408e-08    9.2244179905919408e-08


Number of objective function evaluations             = 272
Number of objective gradient evaluations             = 226
Number of equality constraint evaluations            = 272
Number of inequality constraint evaluations          = 272
Number of equality constraint Jacobian evaluations   = 226
Number of inequality constraint Jacobian evaluations = 226
Number of Lagrangian Hessian evaluations             = 225
Total seconds in IPOPT                               = 29.875

EXIT: Optimal Solution Found.
      solver  :   t_proc      (avg)   t_wall      (avg)    n_eval
       nlp_f  |   6.97ms ( 25.62us)   6.98ms ( 25.65us)       272
       nlp_g  |   1.04 s (  3.84ms)   1.05 s (  3.85ms)       272
  nlp_grad_f  |   9.34ms ( 41.15us)   9.36ms ( 41.25us)       227
  nlp_hess_l  |  18.93 s ( 84.13ms)  19.00 s ( 84.44ms)       225
   nlp_jac_g  |   5.57 s ( 24.53ms)   5.59 s ( 24.62ms)       227
       total  |  29.77 s ( 29.77 s)  29.88 s ( 29.88 s)         1
  Success: True
  Cost: 19.4221
  Iterations: 225
  Solve time: 42.73 s
  Max obstacle slack: 0.0000e+00
  Min obstacle clearance: -0.0020 m
  Accepted: True

Accepted attempt: baseline

Generating plots...
  Saved: /run/media/saveas/Secondary-Storage/Masters/CS234/CS234_Reinforcement_Learning/Final Project/CS234_Final_Project/results/trajectory_optimization/nlp/TRACK4_315m_Obstacles/N120/ipopt_single_stage_trajectory.png
  Saved: /run/media/saveas/Secondary-Storage/Masters/CS234/CS234_Reinforcement_Learning/Final Project/CS234_Final_Project/results/trajectory_optimization/nlp/TRACK4_315m_Obstacles/N120/ipopt_single_stage_states.png
  Saved: /run/media/saveas/Secondary-Storage/Masters/CS234/CS234_Reinforcement_Learning/Final Project/CS234_Final_Project/results/trajectory_optimization/nlp/TRACK4_315m_Obstacles/N120/ipopt_single_stage_controls.png

Generating animation...
  Saved: /run/media/saveas/Secondary-Storage/Masters/CS234/CS234_Reinforcement_Learning/Final Project/CS234_Final_Project/results/trajectory_optimization/nlp/TRACK4_315m_Obstacles/N120/ipopt_single_stage_animation.gif

======================================================================
SUMMARY
======================================================================
Selected attempt: baseline
Attempt                    N      Subs   Clear    Iters    Time [s]   Cost [s]   Max Sigma    Min Clear [m]  Accepted
-----------------------------------------------------------------------------------------------------------------------------
baseline                   120    11     0.300    225      42.73      19.4221    0.000e+00    -0.0020        True

All outputs saved to: /run/media/saveas/Secondary-Storage/Masters/CS234/CS234_Reinforcement_Learning/Final Project/CS234_Final_Project/results/trajectory_optimization/nlp/TRACK4_315m_Obstacles/N120
